Version identifier: 22.1.0.0 | 2022-03-09 | 1a383f8ce
CPXPARAM_Threads                                 1
CPXPARAM_MIP_Strategy_VariableSelect             3
CPXPARAM_TimeLimit                               599.99998645899996
1 of 1 MIP starts provided solutions.
MIP start 'm1' defined initial solution with objective 1.0000.
Tried aggregator 1 time.
MIP Presolve eliminated 13 rows and 0 columns.
MIP Presolve modified 273 coefficients.
Reduced MIP has 1213 rows, 5200 columns, and 76896 nonzeros.
Reduced MIP has 5200 binaries, 0 generals, 0 SOSs, and 0 indicators.
Presolve time = 0.10 sec. (141.96 ticks)
Probing time = 0.02 sec. (15.17 ticks)
Tried aggregator 1 time.
Detecting symmetries...
MIP Presolve modified 14 coefficients.
Reduced MIP has 1213 rows, 5200 columns, and 77272 nonzeros.
Reduced MIP has 5200 binaries, 0 generals, 0 SOSs, and 0 indicators.
Presolve time = 0.07 sec. (86.53 ticks)
Probing time = 0.02 sec. (15.22 ticks)
Clique table members: 800.
MIP emphasis: balance optimality and feasibility.
MIP search method: dynamic search.
Parallel mode: none, using 1 thread.
Root relaxation solution time = 0.92 sec. (1133.53 ticks)

        Nodes                                         Cuts/
   Node  Left     Objective  IInf  Best Integer    Best Bound    ItCnt     Gap

*     0+    0                            1.0000    20100.0000              --- 
      0     0      200.0000   857        1.0000      200.0000     4334     --- 
*     0+    0                          185.0000      200.0000             8.11%
      0     0        cutoff            185.0000      200.0000     4334    8.11%
Detecting symmetries...
      0     2      200.0000    87      185.0000      200.0000     4334    8.11%
Elapsed time = 6.90 sec. (7929.71 ticks, tree = 0.01 MB, solutions = 2)
      1     3      200.0000   138      185.0000      200.0000     9872    8.11%
      2     4      200.0000   546      185.0000      200.0000    13704    8.11%
      3     5      200.0000   149      185.0000      200.0000    15907    8.11%
      4     6      200.0000   128      185.0000      200.0000    16908    8.11%
      5     7      200.0000   115      185.0000      200.0000    17338    8.11%
      6     8      200.0000   108      185.0000      200.0000    21914    8.11%
      7     9      200.0000   259      185.0000      200.0000    25759    8.11%
      8    10      200.0000   205      185.0000      200.0000    28258    8.11%
      9    11      200.0000   145      185.0000      200.0000    28824    8.11%
     12    14      200.0000   440      185.0000      200.0000    35446    8.11%
Elapsed time = 15.17 sec. (17178.15 ticks, tree = 0.09 MB, solutions = 2)
     14    16      200.0000   341      185.0000      200.0000    38201    8.11%
     17    19      200.0000   180      185.0000      200.0000    41183    8.11%
     19    21      200.0000   150      185.0000      200.0000    43993    8.11%
     20    22      200.0000   443      185.0000      200.0000    48173    8.11%
     22    24      200.0000   361      185.0000      200.0000    51588    8.11%
     23    25      200.0000   212      185.0000      200.0000    56446    8.11%
     24    26      200.0000   183      185.0000      200.0000    60630    8.11%
     25    27      200.0000   296      185.0000      200.0000    64510    8.11%
     26    28      200.0000   157      185.0000      200.0000    70349    8.11%
     27    29      200.0000   355      185.0000      200.0000    76637    8.11%
Elapsed time = 26.34 sec. (29475.35 ticks, tree = 0.20 MB, solutions = 2)
     29    31      200.0000   483      185.0000      200.0000    82944    8.11%
     31    33      200.0000   260      185.0000      200.0000    86036    8.11%
     34    36      200.0000   372      185.0000      200.0000    90512    8.11%
     37    39      200.0000   219      185.0000      200.0000   102109    8.11%
     38    40      200.0000    98      185.0000      200.0000   105604    8.11%
     40    42      200.0000   134      185.0000      200.0000   110606    8.11%
     41    43      200.0000    76      185.0000      200.0000   114689    8.11%
     42    44      200.0000   381      185.0000      200.0000   118757    8.11%
     44    46      200.0000   301      185.0000      200.0000   124832    8.11%
     46    48      200.0000   276      185.0000      200.0000   136673    8.11%
Elapsed time = 40.41 sec. (45122.42 ticks, tree = 0.25 MB, solutions = 2)
     48    50      200.0000   305      185.0000      200.0000   140976    8.11%
     50    52      200.0000   296      185.0000      200.0000   141881    8.11%
     53    55      200.0000   346      185.0000      200.0000   142978    8.11%
     56    58      200.0000   250      185.0000      200.0000   143397    8.11%
     59    61      200.0000   410      185.0000      200.0000   144353    8.11%
     62    64      200.0000   391      185.0000      200.0000   145223    8.11%
     65    67      200.0000   339      185.0000      200.0000   146869    8.11%
     68    70      200.0000   319      185.0000      200.0000   147722    8.11%
     71    73      200.0000   314      185.0000      200.0000   149601    8.11%
     74    76      200.0000   257      185.0000      200.0000   150185    8.11%
Elapsed time = 50.55 sec. (56851.69 ticks, tree = 0.31 MB, solutions = 2)
     77    79      200.0000   246      185.0000      200.0000   151487    8.11%
     80    81      200.0000   250      185.0000      200.0000   152611    8.11%
     83    84      200.0000   254      185.0000      200.0000   153696    8.11%
     87    86      199.0000   378      185.0000      200.0000   156107    8.11%
     90    88      199.0000   278      185.0000      200.0000   157759    8.11%
     94    92      200.0000   201      185.0000      200.0000   158085    8.11%
     98    95      200.0000   156      185.0000      200.0000   158880    8.11%
    102    98      200.0000   140      185.0000      200.0000   159902    8.11%
    107   101      200.0000   144      185.0000      200.0000   160782    8.11%
    111   103      200.0000   143      185.0000      200.0000   162246    8.11%
Elapsed time = 59.79 sec. (67476.48 ticks, tree = 0.37 MB, solutions = 2)
    115   105      199.3182   347      185.0000      200.0000   164320    8.11%
    120   108      199.0000   256      185.0000      200.0000   165422    8.11%
    124   112      199.0000   252      185.0000      200.0000   166584    8.11%
    129   117      199.0000   244      185.0000      200.0000   166968    8.11%
    135   121      199.0000   122      185.0000      200.0000   168322    8.11%
    140   123      197.7500   124      185.0000      200.0000   169368    8.11%
    149   128      197.0000   139      185.0000      200.0000   169823    8.11%
    154   131      197.0000    86      185.0000      200.0000   172052    8.11%
    161   135      197.0000   249      185.0000      200.0000   173039    8.11%
    167   138      197.0000   212      185.0000      200.0000   174124    8.11%
Elapsed time = 69.20 sec. (78143.33 ticks, tree = 0.45 MB, solutions = 2)
    174   141      195.3384   169      185.0000      200.0000   175390    8.11%
    180   144      196.0000   104      185.0000      200.0000   176207    8.11%
    189   151      194.0000    75      185.0000      200.0000   176868    8.11%
    199   160      193.0000    58      185.0000      200.0000   177365    8.11%
    209   168      193.0000    83      185.0000      200.0000   178127    8.11%
    221   172      193.0000    94      185.0000      200.0000   178647    8.11%
    233   175      192.0000    87      185.0000      200.0000   179460    8.11%
*   243   172      integral     0      192.0000      200.0000   179859    4.17%
    244   172      200.0000   294      192.0000      200.0000   183740    4.17%
    246   174      200.0000   408      192.0000      200.0000   185151    4.17%
    248   176      200.0000   332      192.0000      200.0000   191210    4.17%
Elapsed time = 80.04 sec. (91207.87 ticks, tree = 0.53 MB, solutions = 3)
    250   178      200.0000   442      192.0000      200.0000   192547    4.17%
    253   181      200.0000   301      192.0000      200.0000   192603    4.17%
    255   183      200.0000   433      192.0000      200.0000   194012    4.17%
    257   185      200.0000   330      192.0000      200.0000   201017    4.17%
    259   187      200.0000   485      192.0000      200.0000   202151    4.17%
    261   189      200.0000   392      192.0000      200.0000   203255    4.17%
    263   191      200.0000   438      192.0000      200.0000   204633    4.17%
    266   194      200.0000   360      192.0000      200.0000   205490    4.17%
    268   196      200.0000   350      192.0000      200.0000   206471    4.17%
    271   198      200.0000   287      192.0000      200.0000   207948    4.17%
Elapsed time = 90.43 sec. (103926.17 ticks, tree = 0.58 MB, solutions = 3)
    273   200      200.0000   320      192.0000      200.0000   209125    4.17%
    275   202      200.0000   407      192.0000      200.0000   210385    4.17%
    277   204      200.0000   374      192.0000      200.0000   211344    4.17%
    280   207      200.0000   414      192.0000      200.0000   212184    4.17%
    283   210      200.0000   349      192.0000      200.0000   212944    4.17%
    286   213      200.0000   344      192.0000      200.0000   213619    4.17%
    289   216      200.0000   241      192.0000      200.0000   214894    4.17%
    292   218      199.0000   411      192.0000      200.0000   216673    4.17%
    295   221      200.0000   237      192.0000      200.0000   217632    4.17%
    298   224      200.0000   345      192.0000      200.0000   218552    4.17%
Elapsed time = 99.69 sec. (115248.14 ticks, tree = 0.63 MB, solutions = 3)
    301   227      200.0000   251      192.0000      200.0000   221441    4.17%
    304   230      200.0000   316      192.0000      200.0000   222172    4.17%
    307   232      200.0000   279      192.0000      200.0000   223753    4.17%
    310   234      200.0000   361      192.0000      200.0000   224834    4.17%
    313   236      200.0000   302      192.0000      200.0000   225618    4.17%
    316   239      200.0000   281      192.0000      200.0000   226667    4.17%
    319   240      199.0000   397      192.0000      200.0000   228196    4.17%
    320   241      200.0000   290      192.0000      200.0000   228361    4.17%
    323   242      199.0000   399      192.0000      200.0000   229944    4.17%
    336   253      200.0000   289      192.0000      200.0000   233425    4.17%
Elapsed time = 111.53 sec. (128882.28 ticks, tree = 0.70 MB, solutions = 3)
    350   264      200.0000   175      192.0000      200.0000   237094    4.17%
    364   271      199.5000   325      192.0000      200.0000   243405    4.17%
    379   282      199.0000   196      192.0000      200.0000   249092    4.17%
    402   296      196.0000   164      192.0000      200.0000   252351    4.17%
    430   321      196.0000    69      192.0000      200.0000   254264    4.17%
    462   340    infeasible            192.0000      200.0000   255816    4.17%
*   476   254      integral     0      196.0000      200.0000   256259    2.04%
    479   256      200.0000   199      196.0000      200.0000   260269    2.04%
    485   262      200.0000   545      196.0000      200.0000   264684    2.04%
    493   270      200.0000   308      196.0000      200.0000   268305    2.04%
    505   282      200.0000   195      196.0000      200.0000   272046    2.04%
Elapsed time = 145.17 sec. (168502.73 ticks, tree = 0.76 MB, solutions = 4)
    522   297      198.0000   184      196.0000      200.0000   275255    2.04%
    550   312      200.0000   363      196.0000      200.0000   282459    2.04%
    557   319      200.0000   413      196.0000      200.0000   285800    2.04%
    560   322      200.0000   375      196.0000      200.0000   286434    2.04%
    569   331      200.0000   354      196.0000      200.0000   288858    2.04%
    579   340      199.0000   258      196.0000      200.0000   292743    2.04%
    589   350      200.0000   159      196.0000      200.0000   297397    2.04%

Performing restart 1

Repeating presolve.
Tried aggregator 1 time.
MIP Presolve eliminated 0 rows and 196 columns.
MIP Presolve modified 14870 coefficients.
Reduced MIP has 1213 rows, 5004 columns, and 54132 nonzeros.
Reduced MIP has 5004 binaries, 0 generals, 0 SOSs, and 0 indicators.
Presolve time = 0.05 sec. (42.59 ticks)
Tried aggregator 1 time.
Reduced MIP has 1213 rows, 5004 columns, and 54132 nonzeros.
Reduced MIP has 5004 binaries, 0 generals, 0 SOSs, and 0 indicators.
Presolve time = 0.03 sec. (31.05 ticks)
Represolve time = 0.25 sec. (185.95 ticks)
    591     2      200.0000   160      196.0000      200.0000   305139    2.04%
    596     7      200.0000   310      196.0000      200.0000   318670    2.04%
    602    13      200.0000   275      196.0000      200.0000   332557    2.04%
Elapsed time = 209.84 sec. (237402.70 ticks, tree = 0.08 MB, solutions = 4)
    611    22      200.0000   564      196.0000      200.0000   347280    2.04%
    617    28      200.0000   466      196.0000      200.0000   363666    2.04%
    622    33      200.0000   459      196.0000      200.0000   369606    2.04%
    635    46      200.0000   302      196.0000      200.0000   377971    2.04%
    647    58      200.0000   209      196.0000      200.0000   387676    2.04%
    660    70      198.0000   257      196.0000      200.0000   401899    2.04%
    674    82      200.0000   153      196.0000      200.0000   418291    2.04%
    691    91      198.0000   179      196.0000      200.0000   436652    2.04%
    713   105      198.0000   174      196.0000      200.0000   457538    2.04%
    733   119      198.0000    76      196.0000      200.0000   477757    2.04%
Elapsed time = 260.72 sec. (289131.44 ticks, tree = 1.25 MB, solutions = 4)
    758   136      198.0000   112      196.0000      200.0000   492489    2.04%
    795   146      198.0000   220      196.0000      200.0000   510431    2.04%
    825   154    infeasible            196.0000      200.0000   527183    2.04%
    851   163      198.0000   213      196.0000      200.0000   543684    2.04%
    884   172      198.0000   118      196.0000      200.0000   563273    2.04%
    912   182    infeasible            196.0000      200.0000   579085    2.04%
    925   190      198.0000   186      196.0000      200.0000   600198    2.04%
    941   198      198.0000   214      196.0000      200.0000   622610    2.04%
    956   205      198.0000   207      196.0000      200.0000   645063    2.04%
    971   214      198.0000   151      196.0000      200.0000   664996    2.04%
Elapsed time = 301.37 sec. (328592.10 ticks, tree = 2.34 MB, solutions = 4)
    993   236      198.0000   160      196.0000      200.0000   675090    2.04%
   1017   244      198.0000   196      196.0000      200.0000   694030    2.04%
   1040   251    infeasible            196.0000      200.0000   709463    2.04%
   1065   264      198.0000   110      196.0000      200.0000   725030    2.04%
   1083   270      200.0000   150      196.0000      200.0000   743657    2.04%
   1107   285      200.0000   132      196.0000      200.0000   758131    2.04%
   1124   295      198.0000   153      196.0000      200.0000   778346    2.04%
   1146   301      198.0000   114      196.0000      200.0000   797537    2.04%
   1175   309    infeasible            196.0000      200.0000   815852    2.04%
   1201   322      198.0000    98      196.0000      200.0000   831243    2.04%
Elapsed time = 342.74 sec. (367628.76 ticks, tree = 3.60 MB, solutions = 4)
   1229   333      198.0000   238      196.0000      200.0000   847039    2.04%
   1256   344      198.0000    92      196.0000      200.0000   864041    2.04%
   1273   350      198.0000   202      196.0000      200.0000   884301    2.04%
   1295   362      198.0000   215      196.0000      200.0000   903396    2.04%
   1323   377      198.0000   178      196.0000      200.0000   918491    2.04%
   1355   393      198.0000   130      196.0000      200.0000   930908    2.04%
   1386   402    infeasible            196.0000      200.0000   947585    2.04%
   1412   412      198.0000   193      196.0000      200.0000   963947    2.04%
   1436   436      198.0000   150      196.0000      200.0000   972263    2.04%
   1462   462      198.0000   194      196.0000      200.0000   980279    2.04%
Elapsed time = 383.19 sec. (406426.76 ticks, tree = 5.21 MB, solutions = 4)
   1484   482      198.0000   185      196.0000      200.0000   991962    2.04%
   1504   493      198.0000   180      196.0000      200.0000  1005100    2.04%
   1528   507    infeasible            196.0000      200.0000  1020913    2.04%
   1554   514      200.0000   156      196.0000      200.0000  1039015    2.04%
   1579   531      198.0000   146      196.0000      200.0000  1056297    2.04%
   1609   543      198.0000   106      196.0000      200.0000  1073703    2.04%
   1639   559      198.0000   187      196.0000      200.0000  1087044    2.04%
   1669   566      198.0000   174      196.0000      200.0000  1104138    2.04%
   1691   576      198.0000   131      196.0000      200.0000  1116537    2.04%
   1718   585      200.0000   193      196.0000      200.0000  1135175    2.04%
Elapsed time = 425.15 sec. (445907.01 ticks, tree = 6.64 MB, solutions = 4)
   1736   596      198.0000   186      196.0000      200.0000  1155521    2.04%
   1761   611    infeasible            196.0000      200.0000  1170584    2.04%
   1795   623      198.0000   220      196.0000      200.0000  1187693    2.04%
   1823   625    infeasible            196.0000      200.0000  1207466    2.04%
   1852   633      198.0000   172      196.0000      200.0000  1226913    2.04%
   1888   642      200.0000   157      196.0000      200.0000  1244872    2.04%
   1918   654    infeasible            196.0000      200.0000  1261095    2.04%
   1948   662      198.0000    92      196.0000      200.0000  1279685    2.04%
   1975   673      198.0000   181      196.0000      200.0000  1296526    2.04%
   2008   692      198.0000   210      196.0000      200.0000  1309423    2.04%
Elapsed time = 466.08 sec. (484668.56 ticks, tree = 7.89 MB, solutions = 4)
   2033   712      198.0000   165      196.0000      200.0000  1321206    2.04%
   2071   727      198.0000   140      196.0000      200.0000  1337116    2.04%
   2103   742      198.0000   201      196.0000      200.0000  1353278    2.04%
   2129   757      198.0000   138      196.0000      200.0000  1367885    2.04%
   2157   773      198.0000   182      196.0000      200.0000  1381666    2.04%
   2188   792    infeasible            196.0000      200.0000  1395438    2.04%
   2221   806      198.0000   102      196.0000      200.0000  1411117    2.04%
   2249   822      198.0000   187      196.0000      200.0000  1427200    2.04%
   2280   831      198.0000   210      196.0000      200.0000  1445917    2.04%
   2305   845      198.0000   185      196.0000      200.0000  1458142    2.04%
Elapsed time = 507.21 sec. (523364.00 ticks, tree = 9.66 MB, solutions = 4)
   2335   855      200.0000   137      196.0000      200.0000  1475637    2.04%
   2361   869      198.0000   157      196.0000      200.0000  1490486    2.04%
   2386   894      198.0000   202      196.0000      200.0000  1499244    2.04%
   2413   913      198.0000   145      196.0000      200.0000  1510636    2.04%
   2442   929    infeasible            196.0000      200.0000  1525829    2.04%
   2477   946    infeasible            196.0000      200.0000  1540286    2.04%
   2491   951      198.0000   102      196.0000      200.0000  1549410    2.04%
   2518   952    infeasible            196.0000      200.0000  1572423    2.04%
   2548   965    infeasible            196.0000      200.0000  1589569    2.04%
   2583   979      198.0000   127      196.0000      200.0000  1605006    2.04%
Elapsed time = 549.91 sec. (563715.80 ticks, tree = 11.21 MB, solutions = 4)
Starting limited solution polishing.
   2612   995      198.9500   208      196.0000      200.0000  1620779    2.04%
   2641  1007      198.0000    90      196.0000      200.0000  1636683    2.04%
   2675  1019      198.0000   208      196.0000      200.0000  1653316    2.04%
   2704  1033    infeasible            196.0000      200.0000  1667678    2.04%
   2733  1037      198.0000   215      196.0000      200.0000  1688394    2.04%
   2758  1054      198.0000   165      196.0000      200.0000  1701102    2.04%
   2791  1061      198.0000   179      196.0000      200.0000  1720494    2.04%
   2819  1074      198.0000   142      196.0000      200.0000  1736711    2.04%
   2848  1090      198.0000   100      196.0000      200.0000  1751636    2.04%
   2874  1099      198.0000   138      196.0000      200.0000  1768857    2.04%
Elapsed time = 590.95 sec. (602545.58 ticks, tree = 12.64 MB, solutions = 4)
   2902  1099      200.0000   163      196.0000      200.0000  1790368    2.04%
   2921  1114      198.0000   143      196.0000      200.0000  1804991    2.04%

Clique cuts applied:  6

Root node processing (before b&c):
  Real time             =    6.84 sec. (7872.35 ticks)
Sequential b&c:
  Real time             =  593.16 sec. (603530.78 ticks)
                          ------------
Total (root+branch&cut) =  600.00 sec. (611403.13 ticks)
Primal:	196
Dual:	200
Status:	Feasible
Time:	600.03
Sequence:
	23
	7
	14
	12
	8
	14
	7
	21
	1
	19
	10
	16
	7
	12
	15
	7
	14
	7
	18
	3
	18
	7
	17
	7
	18
	3
	7
	18
	4
	18
	7
	5
	7
	19
	5
	7
	18
	5
	18
	9
	14
	7
	18
	5
	19
	7
	16
	10
	18
	0
	21
	7
	14
	10
	9
	14
	10
	18
	1
	20
	10
	14
	7
	18
	0
	23
	7
	14
	10
	15
	7
	23
	1
	18
	11
	14
	7
	21
	1
	19
	12
	14
	7
	21
	2
	18
	10
	16
	7
	13
	14
	7
	3
	7
	20
	3
	7
	18
	3
	9
	18
	3
	18
	7
	3
	20
	7
	3
	7
	18
	6
	18
	7
	5
	18
	9
	14
	10
	7
	16
	10
	8
	14
	12
	7
	16
	10
	18
	2
	18
	12
	14
	7
	21
	2
	7
	21
	1
	18
	13
	14
	7
	5
	18
	7
	15
	10
	7
	16
	12
	8
	14
	10
	16
	7
	15
	12
	7
	14
	10
	18
	2
	21
	7
	14
	12
	19
	1
	21
	7
	14
	12
	8
	16
	10
	18
	1
	21
	9
	14
	10
	18
	1
	21
	7
	14
	10
	20
	1
	21
	7
	14
	12
	16
	8
	21
